************************************************************************
file with basedata            : J12045_.BAS
initial value random generator: 517292751
************************************************************************
projects                      :  1
jobs (incl. supersource/sink ):  122
horizon                       :  668
RESOURCES
  - renewable                 :  4   R
  - nonrenewable              :  0   N
  - doubly constrained        :  0   D
************************************************************************
PROJECT INFORMATION:
pronr.  #jobs rel.date duedate tardcost  MPM-Time
    1    120      0      103       94      103
************************************************************************
PRECEDENCE RELATIONS:
jobnr.    #modes  #successors   successors
   1        1          3           2   3   4
   2        1          3          12  41  90
   3        1          3           8   9  57
   4        1          3           5   6  11
   5        1          3          76  86 109
   6        1          3           7  15  26
   7        1          3          14  19  27
   8        1          3          10  30  42
   9        1          1         107
  10        1          3          17  44  53
  11        1          3          13  22  28
  12        1          3          21  24  48
  13        1          3          16  18  20
  14        1          2          35  44
  15        1          3          29  59  72
  16        1          1         121
  17        1          3          23  33  62
  18        1          3          64  74 100
  19        1          3          25  60  81
  20        1          2          56  89
  21        1          3          52  54  99
  22        1          3          46  47  61
  23        1          3          32  38  43
  24        1          1          66
  25        1          3          51  69  71
  26        1          2          31  79
  27        1          2          31  84
  28        1          3          36  52  56
  29        1          3          32  34  39
  30        1          3          38  64  67
  31        1          3          37  54  97
  32        1          3          40  45  70
  33        1          1          50
  34        1          2          40  56
  35        1          2          37  41
  36        1          1          67
  37        1          3          73  77  98
  38        1          3          75  79  95
  39        1          3          49  87  93
  40        1          2          50 121
  41        1          3          48  54  92
  42        1          3          49  71  82
  43        1          3          58  64  72
  44        1          3          48  72 103
  45        1          3          67  78 108
  46        1          3          55  62  88
  47        1          3          74  92  93
  48        1          3          49  69  80
  49        1          3          73 112 118
  50        1          3          58  65 115
  51        1          3          61  65  93
  52        1          3          57  61 103
  53        1          2          59  71
  54        1          1          63
  55        1          3          63  76  77
  56        1          3          62  77 116
  57        1          3          58  63  68
  58        1          2          88 119
  59        1          1         104
  60        1          2          65 114
  61        1          3          73  95 114
  62        1          1          69
  63        1          1          91
  64        1          3          70  75  83
  65        1          3          83  90 117
  66        1          2          78 116
  67        1          3          82  85  86
  68        1          2          82  92
  69        1          3          83  84 112
  70        1          1         106
  71        1          3          74  79 100
  72        1          1          81
  73        1          1          88
  74        1          3          91  94 105
  75        1          3          78  85  90
  76        1          3          97 101 102
  77        1          1         111
  78        1          2          81 110
  79        1          3          87  89  99
  80        1          3          84  85  86
  81        1          1         111
  82        1          2          87  95
  83        1          1          91
  84        1          1          94
  85        1          2          89 106
  86        1          2          96 111
  87        1          1          96
  88        1          1         107
  89        1          2          94 101
  90        1          2          97  99
  91        1          1         107
  92        1          2          96  98
  93        1          2         100 102
  94        1          2         104 109
  95        1          1         104
  96        1          2         101 102
  97        1          1          98
  98        1          1         118
  99        1          1         103
 100        1          2         105 118
 101        1          1         113
 102        1          2         105 106
 103        1          1         108
 104        1          1         117
 105        1          2         110 115
 106        1          2         110 114
 107        1          2         108 109
 108        1          1         113
 109        1          1         113
 110        1          1         112
 111        1          1         117
 112        1          1         120
 113        1          1         120
 114        1          2         115 116
 115        1          1         119
 116        1          1         121
 117        1          1         119
 118        1          1         120
 119        1          1         122
 120        1          1         122
 121        1          1         122
 122        1          0        
************************************************************************
REQUESTS/DURATIONS:
jobnr. mode duration  R 1  R 2  R 3  R 4
------------------------------------------------------------------------
  1      1     0       0    0    0    0
  2      1    10       9    0    0    0
  3      1     5       9    0    0    0
  4      1     1       9    0    0    0
  5      1     2       0    6    0    0
  6      1     3       0    7    0    0
  7      1    10       0    0    7    0
  8      1    10       3    0    0    0
  9      1     7       0    1    0    0
 10      1    10       0    6    0    0
 11      1    10       0    0    0    3
 12      1    10       0    0    8    0
 13      1     6       0    0    6    0
 14      1     8       8    0    0    0
 15      1     9       0    2    0    0
 16      1     9       4    0    0    0
 17      1     2       0    8    0    0
 18      1     1       0    0    0    5
 19      1     6       5    0    0    0
 20      1     4       0    0    7    0
 21      1     4       0    0    5    0
 22      1     4       0    0   10    0
 23      1     6       0    1    0    0
 24      1    10       5    0    0    0
 25      1     7       0    0    0    6
 26      1     8       0    7    0    0
 27      1    10       0    0    3    0
 28      1     7       7    0    0    0
 29      1     2       0    0    6    0
 30      1     8       0    1    0    0
 31      1     4       0    0    1    0
 32      1     8       0    0    3    0
 33      1     1       0    0    0    5
 34      1     6       0    5    0    0
 35      1     5       6    0    0    0
 36      1     5       0    7    0    0
 37      1     8       0    0   10    0
 38      1     9       0    0    8    0
 39      1     1       8    0    0    0
 40      1     7       2    0    0    0
 41      1     6       0    0    7    0
 42      1     3       0    1    0    0
 43      1     9       0    0    8    0
 44      1     7       0   10    0    0
 45      1     5       5    0    0    0
 46      1     6       0    0    7    0
 47      1     7       0    0    0    2
 48      1     5       0    6    0    0
 49      1     8       2    0    0    0
 50      1     6       0    0    1    0
 51      1     8       8    0    0    0
 52      1     6       6    0    0    0
 53      1     1       0    0    2    0
 54      1    10       0    6    0    0
 55      1     2       0    0    5    0
 56      1     7       5    0    0    0
 57      1     4       0    0    0    5
 58      1     2       0    0    8    0
 59      1     4       6    0    0    0
 60      1     9       0    0    6    0
 61      1    10       0    0    2    0
 62      1     2       0    0    0    6
 63      1     5       0    6    0    0
 64      1     5       0    0   10    0
 65      1     4       4    0    0    0
 66      1     3       0    0    3    0
 67      1     2       0   10    0    0
 68      1     1       0    0    0    7
 69      1     2       0    0    3    0
 70      1     2       0    0    0    1
 71      1     5       0    4    0    0
 72      1     6       0    0    3    0
 73      1     2       0    0    7    0
 74      1     4       0    0    0    2
 75      1     2       0    0    2    0
 76      1     1       0    0    2    0
 77      1     6       0    0    0    1
 78      1     3       0    3    0    0
 79      1     1       5    0    0    0
 80      1     8       1    0    0    0
 81      1     8       0    0    0    1
 82      1     5       8    0    0    0
 83      1    10       0   10    0    0
 84      1     4       0    3    0    0
 85      1     2       0    0    0    8
 86      1     3       0    0    0    7
 87      1     9       4    0    0    0
 88      1     6       0    7    0    0
 89      1     9       0    6    0    0
 90      1     6       0    8    0    0
 91      1     8      10    0    0    0
 92      1     5       0    0    3    0
 93      1     8       0    0    0    7
 94      1     6       0    2    0    0
 95      1     7       0    0    6    0
 96      1    10       0    0    0    3
 97      1     8       0    9    0    0
 98      1    10      10    0    0    0
 99      1     2       0    0    0    1
100      1     7       0    2    0    0
101      1     7       5    0    0    0
102      1     7       0    0    5    0
103      1     1       0    0    0    6
104      1     2       1    0    0    0
105      1     2       1    0    0    0
106      1     1       0    0    1    0
107      1     2       0    0    7    0
108      1     1       1    0    0    0
109      1     2       0    0    0    7
110      1     9       0    0    7    0
111      1    10       5    0    0    0
112      1     5       1    0    0    0
113      1     5       0    0    0    3
114      1     3       0    0    6    0
115      1    10       0    0    0    5
116      1     2       0    5    0    0
117      1     5       0    0    0    3
118      1     7       0    8    0    0
119      1    10       0    0    6    0
120      1     8       8    0    0    0
121      1     4       0    4    0    0
122      1     0       0    0    0    0
************************************************************************
RESOURCEAVAILABILITIES:
  R 1  R 2  R 3  R 4
   20   20   24   12
************************************************************************
